50 2035
510 714 1104 604 661 777 669 1027 1194 906 779 955 295 546 819 508 1194 298 378 385 469 279 624 768 477 1194 1164 671 262 672 569 352 684 503 1095 557 373 831 826 995 348 1029 717 323 1030 379 348 312 564 1105 
210 414 804 404 461 577 469 827 994 706 579 755 95 346 619 308 994 98 78 185 269 79 424 568 277 894 964 471 62 472 369 152 384 303 895 357 173 631 626 795 48 829 517 123 830 179 48 12 264 905 
